c 190_win_checker.cnf
c
c field = 190
c formula set type = win_checker
c
p cnf 5 50
370 
372 
374 
376 
-368 
371 
373 
375 
377 
-369 
370 
372 
374 
376 
-380 
371 
373 
375 
377 
-381 
372 
374 
376 
380 
-370 
373 
375 
377 
381 
-371 
372 
374 
376 
380 
-382 
373 
375 
377 
381 
-383 
374 
376 
380 
382 
-372 
375 
377 
381 
383 
-373 
374 
376 
380 
382 
-384 
375 
377 
381 
383 
-385 
376 
380 
382 
384 
-374 
377 
381 
383 
385 
-375 
376 
380 
382 
384 
-386 
377 
381 
383 
385 
-387 
380 
382 
384 
386 
-376 
381 
383 
385 
387 
-377 
380 
382 
384 
386 
-388 
381 
383 
385 
387 
-389 
258 
288 
318 
348 
-228 
259 
289 
319 
349 
-229 
258 
288 
318 
348 
-408 
259 
289 
319 
349 
-409 
288 
318 
348 
408 
-258 
289 
319 
349 
409 
-259 
288 
318 
348 
408 
-438 
289 
319 
349 
409 
-439 
318 
348 
408 
438 
-288 
319 
349 
409 
439 
-289 
250 
282 
314 
346 
-218 
251 
283 
315 
347 
-219 
250 
282 
314 
346 
-410 
251 
283 
315 
347 
-411 
282 
314 
346 
410 
-250 
283 
315 
347 
411 
-251 
282 
314 
346 
410 
-442 
283 
315 
347 
411 
-443 
314 
346 
410 
442 
-282 
315 
347 
411 
443 
-283 
266 
294 
322 
350 
-238 
267 
295 
323 
351 
-239 
266 
294 
322 
350 
-406 
267 
295 
323 
351 
-407 
294 
322 
350 
406 
-266 
295 
323 
351 
407 
-267 
294 
322 
350 
406 
-434 
295 
323 
351 
407 
-435 
322 
350 
406 
434 
-294 
323 
351 
407 
435 
-295 
